Running for instance ./models/rc104.txt
Generating routes...
Execution time:  0.135057083333  minutes
Academic license - for non-commercial use only
Warning: constraint name "Cliente esta na rota" has a space
Optimize a model with 26 rows, 5000 columns and 33415 nonzeros
Variable types: 0 continuous, 5000 integer (0 binary)
Coefficient statistics:
  Matrix range     [1e+00, 1e+00]
  Objective range  [7e+01, 2e+02]
  Bounds range     [1e+00, 1e+00]
  RHS range        [1e+00, 2e+01]
Found heuristic solution: objective 935.1073711
Presolve removed 0 rows and 2809 columns
Presolve time: 0.03s
Presolved: 26 rows, 2191 columns, 14307 nonzeros
Found heuristic solution: objective 557.3284130
Variable types: 0 continuous, 2191 integer (2191 binary)

Root relaxation: objective 3.440963e+02, 53 iterations, 0.00 seconds

    Nodes    |    Current Node    |     Objective Bounds      |     Work
 Expl Unexpl |  Obj  Depth IntInf | Incumbent    BestBd   Gap | It/Node Time

*    0     0               0     344.0963256  344.09633  0.00%     -    0s

Explored 0 nodes (53 simplex iterations) in 0.04 seconds
Thread count was 8 (of 8 available processors)

Solution count 2: 344.096 557.328 

Optimal solution found (tolerance 1.00e-04)
Best objective 3.440963255810e+02, best bound 3.440963255810e+02, gap 0.0000%
14 12 11 15 17 9 10 13
22 20 24 23 18 21 25
2 6 7 8 4 1 3
Distance: 344.096325581
Execution time:  0.141425316667  minutes
